SYSTEM = Superconductivity Test
ENCUT = 520
ISMEAR = 0
