S H
1.0
2.97 0.0 0.0
0.0 2.97 0.0
0.0 0.0 2.97
S H
1 3
Direct
0.0 0.0 0.0
0.5 0.5 0.0
0.5 0.0 0.5
0.0 0.5 0.5
